
(set-logic ALL) 

(declare-datatype MyList ((Nil) (Cons (head Real) (tail MyList)) )) 
(declare-fun l0 () MyList) 
(declare-fun l1 () MyList) 
(declare-fun l2 () MyList) 
(declare-fun l3 () MyList) 
(declare-fun i0 () Real) 
(declare-fun i1 () Real) 
(assert (or (= l3 l2) (= l0 l3)) )
(assert (= l0 Nil) )
(assert (and (= l1 l3) (= l2 Nil) (= l2 Nil)) )
(assert (is-Nil Nil) )
(assert (not (= l2 l1)) )
(assert (and (= l3 l0) (= l0 l0) (is-Cons Nil)) )
(assert (not (= l0 l1)) )
(assert (or (is-Nil l1) (is-Cons Nil) (= l3 Nil)) )
(check-sat)
